
memory 4 GB

molecule {
  0 1
  C    -1.26599202    0.24150627    0.09237132
  C     0.06849478    0.15525835   -0.59757582
  O     0.20412160    0.46268441   -1.78085484
  C     1.22892527   -0.32552589    0.23101678
  H    -2.02222001    0.60119506   -0.61085934
  H    -1.20094210    0.94075423    0.92959303
  H    -1.55830219   -0.74897130    0.44962085
  H     1.02639014   -1.33640645    0.59325688
  H     2.13576919   -0.34381402   -0.37979474
  H     1.38375533    0.35331934    1.07322588

}

set {
  basis def2-svpd
  scf_type df
  reference rks
  geom_maxiter 100  # 设置最大优化步数
}

# 直接让 Psi4 进行优化，而不是只算梯度
optimize('b3lyp-d3bj')
